NAME : mar50_100_1
COMMENT : Data set with 50 points
COMMENT : CIn-UFPE
COMMENT : Contributed by Marcelo Lacerda
TYPE : TSP
DIMENSION : 50
EDGE_WEIGHT_TYPE : EUC_2D
NODE_COORD_SECTION
1 59 25
2 88 83
3 77 29
4 87 70
5 66 38
6 96 32
7 20 41
8 7 48
9 97 94
10 61 79
11 32 43
12 15 12
13 80 54
14 98 12
15 66 81
16 56 10
17 53 42
18 42 22
19 59 88
20 34 46
21 57 21
22 56 16
23 99 26
24 84 25
25 63 10
26 66 31
27 76 38
28 75 95
29 65 53
30 66 87
31 56 42
32 46 61
33 38 82
34 92 37
35 80 2
36 76 97
37 1 60
38 42 39
39 2 0
40 43 2
41 89 25
42 97 20
43 97 80
44 10 20
45 81 66
46 10 68
47 51 39
48 54 11
49 46 25
50 94 41
EOF
